eastwest = 9;
northsouth = 5;
cost = [| 1, -1, 1,  1, 1, 1,  1, 1,  1
 | 1,  1, 1,  1, 1, 1,  1, 1, -1
 | 1, -1, 1,  1, 1, 1, -1, 1,  1
 | 1,  1, 1, -1, 1, 1,  1, 1,  1
 | 1,  1, 1,  1, 1, 1,  1, 1,  1
 |];
ore = [| 4, 0, 0, 0, 0, 0, 0, 0, 0
 | 0, 6, 0, 0, 2, 0, 0, 4, 0
 | 0, 0, 0, 0, 0, 0, 0, 0, 6
 | 0, 0, 4, 0, 0, 0, 0, 0, 0
 | 0, 0, 0, 0, 4, 0, 0, 2, 0
 |];
budget = 24;
length = 12;
start = [(1,1),(5,5),(7,5)];
